s td 15 65 80
b 1 1 2 3 4 5 6 7 8 9 12 13 15 16 17 18 19 20 21 22 23 24 25 27 28 29 30 31 32 34 35 37 39 40 41 42 43 44 45 46 47 48 49 50 51 52 53 54 55 56 59 60 62 63 64 66 68 69 71 73 75 76 77 78 79 80
b 2 1 2 3 4 6 7 8 9 12 13 14 15 16 17 18 19 20 21 22 23 24 25 27 28 29 30 31 32 34 35 37 39 41 42 43 44 45 46 47 48 49 50 51 52 53 54 55 56 59 60 62 63 64 65 66 68 69 71 73 75 76 77 78 79 80
b 3 4 10 14 16 18 19 21 22 23 27 28 30 31 32 34 37 39 42 44 45 46 48 49 51 54 55 59 62 68 69 76 77 78
b 4 1 2 3 4 6 7 8 9 12 14 15 16 17 18 19 20 21 22 23 24 25 27 28 29 30 31 32 34 35 36 37 39 41 42 43 44 45 46 47 48 49 50 51 52 53 54 55 56 59 60 62 63 64 65 66 68 69 71 73 75 76 78 79 80
b 5 1 2 3 4 6 7 8 9 12 14 15 16 17 19 20 21 22 23 24 25 27 28 29 30 31 32 34 35 36 37 38 39 41 42 43 44 45 46 47 48 49 50 51 52 53 54 55 56 59 60 62 63 64 65 66 68 69 71 73 75 76 78 79 80
b 6 1 2 3 4 6 7 8 9 12 14 15 16 17 19 20 21 22 23 24 25 27 28 29 30 31 32 34 36 37 38 39 41 42 43 44 45 46 47 48 49 50 51 52 53 54 55 56 58 59 60 62 63 64 65 66 68 69 71 73 75 76 78 79 80
b 7 1 2 3 4 6 7 8 9 12 14 15 16 17 19 20 21 22 23 24 25 26 27 28 29 30 31 32 34 36 37 38 39 41 42 43 44 45 46 47 48 49 51 52 53 54 55 56 58 59 60 62 63 64 65 66 69 71 73 75 76 78 79 80
b 8 1 2 3 4 6 7 8 9 12 14 15 16 17 19 21 22 23 24 25 26 27 28 29 30 31 32 33 34 36 37 38 39 41 42 43 44 45 46 47 48 49 51 52 53 54 55 56 58 59 60 62 63 64 65 66 69 71 73 75 76 78 80
b 9 1 2 3 4 6 8 12 14 15 16 17 19 21 22 25 26 27 28 29 30 31 32 33 36 37 38 39 42 43 44 46 47 48 51 52 53 54 55 56 57 59 62 63 64 65 66 71 73 75 76 80
b 10 1 2 3 6 15 16 19 21 22 27 28 29 30 32 36 37 38 44 46 47 48 51 52 53 57 72 80
b 11 3 4 6 7 15 16 17 19 21 22 24 25 26 27 28 29 30 31 33 34 38 41 45 46 47 48 49 51 53 54 58 59 60 61 64 66 78 80
b 12 1 2 3 4 5 6 7 8 9 11 12 13 15 16 17 18 19 20 21 22 23 24 27 28 29 30 31 32 34 35 37 39 40 41 42 43 44 45 46 47 48 49 50 51 52 53 54 55 56 59 60 62 63 64 66 68 69 71 73 75 76 77 78 79 80
b 13 1 2 3 4 5 6 7 8 9 11 12 13 15 16 17 18 19 20 21 22 23 24 27 28 29 30 31 32 34 35 37 39 40 41 42 43 44 45 46 47 48 49 50 51 52 53 54 56 59 60 62 63 64 66 67 69 71 75 76 77 78 79 80
b 14 1 2 3 4 5 6 7 8 9 11 12 13 15 16 17 18 19 20 21 22 23 24 27 28 29 30 31 35 37 39 41 42 43 44 45 46 47 48 49 50 51 52 53 54 59 60 62 63 64 67 69 71 74 75 76 77 78 79 80
b 15 1 2 3 4 5 6 7 8 9 12 15 16 17 18 21 22 23 27 28 35 37 39 41 44 45 48 50 52 53 62 64 69 70 71 74 75 76 77 78 79 80
1 2
1 12
2 3
2 4
4 5
5 6
6 7
7 8
8 9
8 11
9 10
12 13
13 14
14 15
